90 99 52 86 87 74 
82 11 15 16 47 14 12 78 73 79 7 6 8 46 5 3 1 43 35 37 54 
2 45 4 100 70 
69 98 88 53 9 59 75 97 10 13 17 60 
64 19 23 21 18 76 89 66 
95 33 28 27 29 31 30 32 26 34 50 80 
65 83 57 22 20 49 24 48 25 77 58 
94 67 71 93 96 
72 36 39 42 44 40 38 41 61 81 68 55 
92 62 85 63 51 84 56 91 
